51
1 27 68
2 30 48
3 43 67
4 58 48
5 58 27
6 37 69
7 38 46
8 46 10
9 61 33
10 62 63
11 63 69
12 32 22
13 45 35
14 59 15
15 5 6
16 10 17
17 21 10
18 5 64
19 30 15
20 39 10
21 32 39
22 25 32
23 25 55
24 48 28
25 56 37
26 30 40
27 37 52
28 49 49
29 52 64
30 20 26
31 40 30
32 21 47
33 17 63
34 31 62
35 52 33
36 51 21
37 42 41
38 31 32
39 5 25
40 12 42
41 36 16
42 52 41
43 27 23
44 17 33
45 13 13
46 57 58
47 62 42
48 42 57
49 16 57
50 8 52
51 7 38
